

******************************************************************************
This program contains Ipopt, a library for large-scale nonlinear optimization.
 Ipopt is released as open source code under the Eclipse Public License (EPL).
         For more information visit http://projects.coin-or.org/Ipopt
******************************************************************************

This is Ipopt version 3.12.8, running with linear solver mumps.
NOTE: Other linear solvers might be more efficient (see Ipopt documentation).

Number of nonzeros in equality constraint Jacobian...:        2
Number of nonzeros in inequality constraint Jacobian.:        0
Number of nonzeros in Lagrangian Hessian.............:        7

Total number of variables............................:        6
                     variables with only lower bounds:        0
                variables with lower and upper bounds:        6
                     variables with only upper bounds:        0
Total number of equality constraints.................:        1
Total number of inequality constraints...............:        0
        inequality constraints with only lower bounds:        0
   inequality constraints with lower and upper bounds:        0
        inequality constraints with only upper bounds:        0

iter    objective    inf_pr   inf_du lg(mu)  ||d||  lg(rg) alpha_du alpha_pr  ls
   0  5.3549932e-01 7.00e-01 1.00e+00  -1.0 0.00e+00    -  0.00e+00 0.00e+00   0
   1  3.3578119e-01 1.11e-16 6.11e-01  -1.0 7.33e-01    -  5.37e-01 1.00e+00f  1
   2  2.0841448e-01 5.55e-17 9.31e-03  -1.0 2.67e-01    -  9.84e-01 1.00e+00f  1
   3  1.9504320e-01 5.55e-17 8.33e-17  -1.7 7.10e-02    -  1.00e+00 1.00e+00f  1
   4  1.9294743e-01 5.55e-17 7.20e-17  -2.5 3.64e-02    -  1.00e+00 1.00e+00f  1
   5  1.9285742e-01 5.55e-17 2.28e-17  -3.8 8.48e-03    -  1.00e+00 1.00e+00f  1
   6  1.9285714e-01 5.55e-17 7.80e-17  -5.7 4.82e-04    -  1.00e+00 1.00e+00f  1
   7  1.9285714e-01 5.55e-17 5.18e-17  -8.6 3.35e-06    -  1.00e+00 1.00e+00h  1

Number of Iterations....: 7

                                   (scaled)                 (unscaled)
Objective...............:   1.9285714285714289e-01    1.9285714285714289e-01
Dual infeasibility......:   5.1770441977946023e-17    5.1770441977946023e-17
Constraint violation....:   5.5511151231257827e-17    5.5511151231257827e-17
Complementarity.........:   2.5336069192871484e-09    2.5336069192871484e-09
Overall NLP error.......:   2.5336069192871484e-09    2.5336069192871484e-09


Number of objective function evaluations             = 8
Number of objective gradient evaluations             = 8
Number of equality constraint evaluations            = 8
Number of inequality constraint evaluations          = 0
Number of equality constraint Jacobian evaluations   = 8
Number of inequality constraint Jacobian evaluations = 0
Number of Lagrangian Hessian evaluations             = 7
Total CPU secs in IPOPT (w/o function evaluations)   =      0.000
Total CPU secs in NLP function evaluations           =      0.000

EXIT: Optimal Solution Found.
 
Ipopt 3.12.8: Optimal Solution Found
